objective value:                                  -61
t_x21                                               1 	(obj:-100)
t_y21_321                                           1 	(obj:1)
t_y21_31                                            1 	(obj:1)
t_y21_277                                           1 	(obj:1)
t_y21_440                                           1 	(obj:1)
t_y21_193                                           1 	(obj:1)
t_y21_453                                           1 	(obj:1)
t_y21_104                                           1 	(obj:1)
t_y21_509                                           1 	(obj:1)
t_y21_273                                           1 	(obj:1)
t_y21_83                                            1 	(obj:1)
t_y21_472                                           1 	(obj:1)
t_y21_365                                           1 	(obj:1)
t_y21_225                                           1 	(obj:1)
t_y21_487                                           1 	(obj:1)
t_y21_363                                           1 	(obj:1)
t_y21_392                                           1 	(obj:1)
t_y21_94                                            1 	(obj:1)
t_y21_114                                           1 	(obj:1)
t_y21_406                                           1 	(obj:1)
t_y21_426                                           1 	(obj:1)
t_y21_585                                           1 	(obj:1)
t_y21_317                                           1 	(obj:1)
t_y21_126                                           1 	(obj:1)
t_y21_495                                           1 	(obj:1)
t_y5_21                                             1 	(obj:1)
t_y21_135                                           1 	(obj:1)
t_y21_211                                           1 	(obj:1)
t_y21_190                                           1 	(obj:1)
t_y21_210                                           1 	(obj:1)
t_y21_519                                           1 	(obj:1)
t_y21_256                                           1 	(obj:1)
t_y21_292                                           1 	(obj:1)
t_y21_271                                           1 	(obj:1)
t_y21_223                                           1 	(obj:1)
t_y21_269                                           1 	(obj:1)
t_y21_289                                           1 	(obj:1)
t_y21_467                                           1 	(obj:1)
t_y21_267                                           1 	(obj:1)
t_y21_240                                           1 	(obj:1)
